20 64 
1 5 1
1 6 1
1 8 1
1 11 1
1 13 1
2 5 1
2 6 1
2 7 1
2 9 1
2 11 1
2 12 1
2 13 1
2 16 1
2 17 1
3 5 1
3 6 1
3 7 1
3 11 1
3 12 1
3 15 1
4 5 1
4 6 1
4 7 1
4 8 1
4 10 1
4 17 1
4 18 1
4 19 1
5 9 1
5 10 1
5 12 1
5 14 1
5 15 1
5 18 1
6 7 1
6 8 1
6 10 1
6 13 1
6 17 1
7 8 1
7 9 1
7 10 1
7 12 1
7 14 1
7 19 1
7 20 1
8 9 1
8 14 1
8 20 1
9 17 1
9 19 1
10 11 1
11 15 1
12 13 1
12 14 1
12 15 1
12 16 1
13 16 1
13 18 1
14 16 1
14 19 1
14 20 1
15 20 1
17 18 1
